Traveling Salesman Problem/TSP_generados/Aleatorio1621104025_18.tsp
NAME: Aleatorio1621104025_18.tsp
COMMENT: Randomly generated scenario
TYPE: TSP
DIMENSION: 18
EDGE_WEIGHT_TYPE: ATT
NODE_COORD_SECTION
1 23.15 38.33
2 0.13 17.78
3 11.54 14.51
4 23.57 8.89
5 28.12 21.15
6 16.2 27.91
7 12.5 1.02
8 28.7 11.73
9 19.46 10.96
10 5.99 20.98
11 36.62 1.94
12 20.94 33.16
13 27.96 48.71
14 39.0 4.5
15 36.59 20.15
16 12.4 45.29
17 26.4 25.46
18 42.01 49.43
