Traveling Salesman Problem/TSP_generados/Aleatorio1621104025_18.opt.tour
NAME: Aleatorio1621104025_18.opt.tour
COMMENT: Optimal solution for Aleatorio1621104025_18 (196.20845057143592)
TYPE: TOUR
DIMENSION: 18
TOUR_SECTION
1 12 6 10 2 3 7 9 4 8 11 14 15 5 17 18 13 16
-1
EOF
